 Code   933
 Dimension, Fixed Cost
   100        3000
 Facility, Client, Transportation Cost
     1       10           4
     1       26           2
     1       37           0
     1       47           0
     1       50           1
     1       82           4
     1       83           2
     1       84           3
     1       86           2
     1       95           3
     2       15           2
     2       18           1
     2       20           1
     2       37           3
     2       39           2
     2       45           0
     2       59           1
     2       63           2
     2       72           1
     2       75           2
     3        9           2
     3       17           3
     3       19           3
     3       21           2
     3       29           2
     3       39           3
     3       40           0
     3       50           3
     3       53           1
     3       90           1
     4        8           3
     4       14           1
     4       54           3
     4       61           2
     4       64           0
     4       65           3
     4       70           0
     4       73           0
     4       84           1
     4       87           0
     5       11           0
     5       22           0
     5       26           0
     5       29           1
     5       30           4
     5       44           0
     5       46           3
     5       47           1
     5       60           1
     5       66           3
     6        2           1
     6        7           3
     6       17           3
     6       18           1
     6       32           0
     6       36           0
     6       43           1
     6       51           4
     6       64           1
     6       77           0
     7        4           3
     7       15           2
     7       27           3
     7       28           4
     7       71           3
     7       73           1
     7       75           4
     7       87           3
     7       90           3
     7       95           1
     8        7           1
     8       23           3
     8       30           3
     8       42           0
     8       47           0
     8       49           0
     8       59           4
     8       78           3
     8       87           0
     8       94           2
     9       18           1
     9       26           3
     9       29           2
     9       37           1
     9       55           3
     9       56           1
     9       58           3
     9       61           0
     9       63           1
     9       76           0
    10        1           2
    10        6           3
    10       20           4
    10       23           2
    10       28           0
    10       38           2
    10       41           1
    10       70           2
    10       71           3
    10       94           3
    11        5           2
    11       33           0
    11       40           1
    11       68           4
    11       80           2
    11       83           3
    11       97           3
    11       98           4
    11       99           0
    11      100           2
    12        4           3
    12       15           4
    12       17           0
    12       21           3
    12       24           1
    12       29           4
    12       34           2
    12       39           4
    12       58           2
    12       61           2
    13        9           0
    13       12           0
    13       16           4
    13       44           0
    13       67           3
    13       68           4
    13       69           1
    13       80           1
    13       81           2
    13       85           3
    14        1           0
    14        2           4
    14        8           3
    14       36           4
    14       51           3
    14       67           0
    14       70           4
    14       81           4
    14       91           0
    14       92           4
    15       14           1
    15       29           2
    15       36           3
    15       40           2
    15       66           3
    15       87           2
    15       88           3
    15       91           2
    15       95           3
    15      100           4
    16        1           0
    16       35           0
    16       53           3
    16       68           4
    16       75           1
    16       84           4
    16       87           4
    16       89           1
    16       94           2
    16       96           4
    17       19           4
    17       35           0
    17       40           4
    17       44           3
    17       56           3
    17       57           3
    17       64           0
    17       70           4
    17       72           2
    17       81           1
    18       20           1
    18       21           0
    18       44           4
    18       45           4
    18       57           0
    18       58           4
    18       65           4
    18       79           0
    18       83           2
    18       93           0
    19        4           1
    19       14           3
    19       27           1
    19       34           0
    19       35           0
    19       55           1
    19       68           1
    19       73           2
    19       74           4
    19       76           3
    20        6           2
    20       23           2
    20       54           2
    20       81           4
    20       84           0
    20       93           1
    20       94           1
    20       96           4
    20       97           0
    20       99           3
    21        2           4
    21        8           1
    21       13           3
    21       14           2
    21       15           4
    21       61           3
    21       70           0
    21       74           2
    21       75           4
    21       76           4
    22        7           4
    22       14           0
    22       23           2
    22       28           1
    22       33           4
    22       38           0
    22       42           1
    22       55           3
    22       69           0
    22       76           2
    23        6           1
    23       12           4
    23       13           3
    23       17           2
    23       21           1
    23       24           1
    23       25           1
    23       34           3
    23       36           2
    23       42           4
    24       13           3
    24       38           3
    24       52           0
    24       53           4
    24       78           1
    24       85           1
    24       95           4
    24       98           1
    24       99           2
    24      100           1
    25       13           2
    25       15           4
    25       32           0
    25       43           0
    25       44           1
    25       46           1
    25       48           3
    25       51           3
    25       52           2
    25       59           3
    26        9           1
    26       12           2
    26       28           4
    26       34           4
    26       58           3
    26       63           4
    26       64           1
    26       89           3
    26       94           3
    26       97           3
    27       14           4
    27       26           2
    27       38           1
    27       48           3
    27       55           1
    27       67           3
    27       79           0
    27       88           2
    27       95           0
    27       98           0
    28       15           3
    28       44           3
    28       47           4
    28       68           1
    28       77           0
    28       90           1
    28       94           1
    28       97           3
    28       99           4
    28      100           2
    29        8           4
    29       12           1
    29       13           3
    29       15           2
    29       30           0
    29       36           1
    29       39           0
    29       41           4
    29       52           3
    29       59           1
    30       10           4
    30       12           1
    30       14           1
    30       16           2
    30       25           1
    30       45           0
    30       64           3
    30       80           0
    30       89           0
    30       93           1
    31        2           3
    31       25           1
    31       36           0
    31       49           1
    31       51           4
    31       57           0
    31       59           3
    31       66           3
    31       80           0
    31       96           3
    32        1           1
    32       21           0
    32       24           1
    32       26           2
    32       47           4
    32       48           2
    32       52           4
    32       62           1
    32       63           2
    32       65           3
    33        7           1
    33       20           1
    33       62           2
    33       83           3
    33       86           3
    33       88           1
    33       90           1
    33       95           0
    33       97           3
    33       99           2
    34        2           3
    34        4           3
    34       10           4
    34       23           1
    34       28           2
    34       44           2
    34       53           1
    34       58           0
    34       59           4
    34       84           0
    35        7           2
    35       17           4
    35       18           3
    35       24           1
    35       35           2
    35       40           0
    35       46           3
    35       70           2
    35       71           0
    35       74           4
    36       24           3
    36       31           4
    36       34           4
    36       55           1
    36       60           4
    36       63           3
    36       88           2
    36       93           1
    36       96           2
    36      100           1
    37       21           0
    37       50           0
    37       51           2
    37       56           3
    37       88           4
    37       91           3
    37       93           2
    37       94           4
    37       95           3
    37       96           1
    38        1           0
    38        3           4
    38       16           2
    38       17           1
    38       23           3
    38       33           4
    38       46           3
    38       62           2
    38       72           2
    38       78           2
    39        8           1
    39       20           2
    39       35           1
    39       39           2
    39       45           3
    39       46           3
    39       48           3
    39       56           4
    39       69           2
    39       77           3
    40        5           0
    40        6           1
    40       67           1
    40       73           3
    40       80           3
    40       84           3
    40       85           3
    40       87           2
    40       89           4
    40       91           0
    41        5           0
    41        8           0
    41       23           2
    41       27           1
    41       42           2
    41       55           0
    41       62           0
    41       64           4
    41       69           0
    41       78           0
    42       12           4
    42       24           4
    42       41           3
    42       49           0
    42       51           3
    42       76           0
    42       79           1
    42       81           1
    42       85           4
    42       86           4
    43       21           0
    43       25           2
    43       26           0
    43       31           4
    43       40           4
    43       41           4
    43       59           1
    43       61           0
    43       65           2
    43       88           0
    44       27           0
    44       48           3
    44       54           2
    44       60           2
    44       62           0
    44       68           3
    44       69           2
    44       79           1
    44       80           4
    44       81           4
    45        1           2
    45        3           0
    45       18           4
    45       40           4
    45       43           3
    45       47           3
    45       55           3
    45       71           2
    45       72           0
    45       74           2
    46       22           2
    46       23           3
    46       57           1
    46       63           3
    46       92           1
    46       95           4
    46       96           3
    46       97           2
    46       98           4
    46       99           0
    47        3           2
    47        5           1
    47       12           4
    47       27           3
    47       49           3
    47       57           0
    47       71           4
    47       73           3
    47       82           4
    47       89           4
    48        9           3
    48       22           2
    48       31           0
    48       37           2
    48       38           4
    48       43           0
    48       49           0
    48       68           0
    48       77           0
    48       88           0
    49       13           1
    49       20           2
    49       37           4
    49       45           3
    49       55           1
    49       60           1
    49       74           4
    49       81           3
    49       82           0
    49       90           0
    50        6           0
    50        9           0
    50       33           0
    50       37           0
    50       88           2
    50       89           0
    50       92           1
    50       93           2
    50       99           0
    50      100           4
    51        3           0
    51       33           2
    51       37           4
    51       40           4
    51       58           3
    51       61           4
    51       65           3
    51       70           4
    51       79           4
    51       96           4
    52        7           4
    52       15           4
    52       21           3
    52       54           2
    52       59           4
    52       62           3
    52       84           4
    52       87           2
    52       94           0
    52       96           4
    53        4           2
    53        6           1
    53       11           0
    53       16           2
    53       24           4
    53       27           4
    53       32           2
    53       35           0
    53       41           2
    53       53           2
    54        4           3
    54        5           4
    54       33           4
    54       68           1
    54       71           4
    54       74           0
    54       75           2
    54       98           1
    54       99           4
    54      100           4
    55        4           1
    55       25           4
    55       30           3
    55       33           2
    55       48           3
    55       52           0
    55       63           4
    55       95           0
    55       97           0
    55       98           1
    56       13           2
    56       17           0
    56       18           4
    56       32           3
    56       75           0
    56       76           2
    56       83           1
    56       86           4
    56       90           2
    56       91           4
    57        9           2
    57       10           0
    57       18           1
    57       31           2
    57       36           0
    57       68           3
    57       72           1
    57       74           1
    57       76           2
    57       91           4
    58       10           3
    58       25           4
    58       31           2
    58       34           4
    58       43           1
    58       54           3
    58       71           1
    58       73           4
    58       78           0
    58       99           2
    59        7           3
    59       18           3
    59       35           3
    59       42           3
    59       52           2
    59       66           3
    59       72           1
    59       85           0
    59       94           0
    59       97           1
    60       16           4
    60       40           3
    60       79           2
    60       85           0
    60       86           3
    60       93           3
    60       97           3
    60       98           0
    60       99           1
    60      100           1
    61       13           3
    61       38           4
    61       42           1
    61       47           0
    61       49           4
    61       52           2
    61       53           2
    61       62           0
    61       63           2
    61       86           3
    62        5           4
    62       19           2
    62       29           1
    62       39           0
    62       57           4
    62       80           0
    62       86           3
    62       92           0
    62       96           1
    62       98           4
    63        6           2
    63       24           4
    63       28           4
    63       29           0
    63       31           2
    63       38           2
    63       46           2
    63       47           2
    63       52           1
    63       67           0
    64        2           2
    64        3           4
    64       13           3
    64       44           1
    64       45           3
    64       49           3
    64       50           0
    64       60           2
    64       66           4
    64       67           0
    65        1           3
    65       10           4
    65       11           0
    65       16           3
    65       19           0
    65       27           3
    65       31           0
    65       32           0
    65       36           0
    65       58           1
    66        1           3
    66        8           0
    66       21           0
    66       22           2
    66       43           2
    66       66           3
    66       73           1
    66       76           4
    66       77           1
    66       89           0
    67        8           0
    67       10           3
    67       22           4
    67       23           1
    67       30           3
    67       31           1
    67       35           0
    67       51           0
    67       52           4
    67       77           0
    68        5           3
    68       14           3
    68       20           1
    68       51           2
    68       66           2
    68       70           2
    68       85           3
    68       90           1
    68       91           2
    68       93           1
    69        2           0
    69        5           4
    69        9           3
    69       15           1
    69       19           4
    69       27           3
    69       28           3
    69       34           1
    69       50           0
    69       61           1
    70        3           3
    70        7           3
    70       11           4
    70       28           2
    70       35           1
    70       58           2
    70       59           2
    70       69           0
    70       76           0
    70       79           1
    71        2           1
    71       12           2
    71       57           1
    71       60           0
    71       78           1
    71       80           1
    71       88           2
    71       92           3
    71       94           4
    71       95           2
    72       10           2
    72       16           2
    72       23           4
    72       30           3
    72       32           1
    72       33           2
    72       43           3
    72       47           0
    72       71           4
    72       81           0
    73        6           1
    73        8           2
    73        9           2
    73       13           2
    73       14           2
    73       24           0
    73       32           2
    73       44           4
    73       52           2
    73       56           3
    74        4           1
    74       16           0
    74       20           4
    74       48           2
    74       54           3
    74       61           2
    74       65           1
    74       70           3
    74       90           4
    74       92           3
    75       10           2
    75       37           3
    75       39           0
    75       43           3
    75       51           3
    75       53           0
    75       60           0
    75       73           1
    75       74           2
    75       83           4
    76        9           4
    76       11           2
    76       24           4
    76       33           1
    76       38           2
    76       47           0
    76       50           3
    76       66           3
    76       73           0
    76       75           3
    77        5           4
    77       18           3
    77       22           1
    77       28           3
    77       30           4
    77       36           4
    77       42           0
    77       44           0
    77       49           4
    77       54           0
    78       11           3
    78       16           3
    78       34           3
    78       43           3
    78       75           2
    78       77           2
    78       78           1
    78       82           2
    78       89           0
    78       92           2
    79        6           1
    79        8           3
    79       11           2
    79       53           4
    79       59           4
    79       79           0
    79       80           1
    79       87           4
    79       88           0
    79       89           0
    80       22           4
    80       41           1
    80       49           2
    80       50           3
    80       63           2
    80       77           1
    80       78           1
    80       80           2
    80       83           0
    80       91           3
    81       28           3
    81       30           1
    81       33           1
    81       46           4
    81       51           0
    81       57           2
    81       65           1
    81       68           2
    81       72           3
    81       81           1
    82        3           3
    82       22           2
    82       45           3
    82       56           0
    82       75           1
    82       76           1
    82       82           3
    82       83           1
    82       91           1
    82       97           4
    83        2           3
    83        9           0
    83       29           4
    83       39           4
    83       60           0
    83       82           0
    83       83           3
    83       85           4
    83       92           0
    83       93           0
    84       25           0
    84       38           4
    84       41           2
    84       45           0
    84       50           1
    84       55           0
    84       71           0
    84       82           0
    84       85           3
    84       87           1
    85       15           2
    85       17           4
    85       20           0
    85       26           4
    85       31           2
    85       64           4
    85       67           3
    85       72           1
    85       74           3
    85       86           3
    86       11           2
    86       14           2
    86       22           1
    86       27           4
    86       63           4
    86       86           1
    86       90           2
    86       92           2
    86       93           0
    86      100           3
    87        3           1
    87       19           0
    87       30           1
    87       42           0
    87       46           2
    87       56           1
    87       61           4
    87       77           1
    87       82           3
    87       85           1
    88       10           0
    88       11           2
    88       25           1
    88       29           4
    88       49           2
    88       73           0
    88       84           3
    88       86           4
    88       87           4
    88       91           2
    89       12           2
    89       25           2
    89       26           3
    89       36           1
    89       38           3
    89       43           2
    89       45           3
    89       54           4
    89       57           2
    89       69           2
    90       17           4
    90       26           3
    90       41           4
    90       45           1
    90       50           4
    90       64           4
    90       65           1
    90       66           1
    90       79           2
    90       84           1
    91        6           3
    91       19           4
    91       31           1
    91       34           1
    91       50           3
    91       66           2
    91       69           3
    91       78           1
    91       82           4
    91       90           3
    92        7           1
    92       12           0
    92       19           4
    92       20           3
    92       22           2
    92       29           4
    92       42           3
    92       64           4
    92       67           0
    92       69           4
    93        1           2
    93       19           2
    93       37           0
    93       39           1
    93       53           0
    93       56           0
    93       58           1
    93       65           4
    93       70           4
    93       75           3
    94        4           1
    94        7           1
    94       18           4
    94       26           4
    94       53           3
    94       61           2
    94       82           2
    94       84           3
    94       89           4
    94       98           1
    95        1           1
    95       35           2
    95       48           4
    95       54           0
    95       55           2
    95       57           1
    95       60           2
    95       62           4
    95       72           0
    95       74           1
    96        3           1
    96       17           0
    96       25           0
    96       27           3
    96       46           1
    96       48           3
    96       56           1
    96       60           3
    96       77           4
    96       78           0
    97       16           4
    97       56           0
    97       67           0
    97       69           2
    97       79           2
    97       81           1
    97       92           0
    97       96           2
    97       98           0
    97      100           2
    98        2           0
    98        3           0
    98       11           1
    98       21           4
    98       32           3
    98       37           2
    98       39           1
    98       40           2
    98       54           0
    98       64           1
    99        4           4
    99       19           3
    99       30           4
    99       32           3
    99       34           0
    99       41           3
    99       42           1
    99       58           2
    99       62           0
    99       67           4
   100        5           0
   100       32           3
   100       41           1
   100       46           1
   100       48           0
   100       62           3
   100       65           3
   100       71           1
   100       72           4
   100       83           4
